c WARNING: for repeatability, setting FPU to use double precision
d VARIABLES            187002       
d CONSTRAINTS          854911       
c ============================[ Problem Statistics ]=============================
c |                                                                             |
c |  Number of variables:        187002                                         |
c |  Number of clauses:          854911                                         |
c |  Parse time:                   0.15 s                                       |
c |                                                                             |
c ============================[ Search Statistics ]==============================
c | Conflicts |          ORIGINAL         |          LEARNT          | Progress |
c |           |    Vars  Clauses Literals |    Limit  Clauses Lit/Cl |          |
c ===============================================================================
c |       100 |  164981   792615  1917224 |   290625       99     22 | 11.776 % |
c |       250 |  164981   792615  1917224 |   319688      249     16 | 11.776 % |
c |       475 |  164981   792615  1917224 |   351656      474     19 | 11.776 % |
c |       812 |  164981   792405  1916720 |   386822      811     33 | 11.776 % |
c |      1318 |  164981   792405  1916720 |   425504     1317     55 | 11.776 % |
c |      2077 |  164981   792405  1916720 |   468055     2076     71 | 11.776 % |
c |      3216 |  164981   792405  1916720 |   514860     3215     80 | 11.776 % |
c |      4924 |  164981   792405  1916720 |   566346     4923     82 | 11.776 % |
c |      7486 |  164981   792405  1916720 |   622981     7485    107 | 11.776 % |
c |     11330 |  164981   792405  1916720 |   685279    11329    114 | 11.776 % |
c |     17096 |  164981   792405  1916720 |   753807    17095    126 | 11.776 % |
c |     25745 |  164981   792405  1916720 |   829188    25744    153 | 11.776 % |
c |     38719 |  164981   792405  1916720 |   912107    38718    147 | 11.776 % |
c |     58180 |  164981   792405  1916720 |  1003318    58179    150 | 11.776 % |
c |     87372 |  164981   792405  1916720 |  1103649    87371    133 | 11.776 % |
c |    131161 |  164981   792405  1916720 |  1214014   131160    162 | 11.776 % |
c |    196845 |  164981   792405  1916720 |  1335416   196844    158 | 11.776 % |
c |    295371 |  164981   792405  1916720 |  1468957   295370    153 | 11.776 % |
c |    443160 |  164981   792405  1916720 |  1615853   443159    157 | 11.776 % |
c |    664843 |  164981   792405  1916720 |  1777439   664842    167 | 11.776 % |
c |    997368 |  164981   792405  1916720 |  1955183   997367    166 | 11.776 % |
c |   1496156 |  164981   792405  1916720 |  2150701  1496155    177 | 11.776 % |
c ===============================================================================
c restarts              : 3133
c conflicts             : 1659810        (925 /sec)
c decisions             : 5171188        (0.00 % random) (2883 /sec)
c propagations          : 4336483233     (2417500 /sec)
c conflict literals     : 298235137      (32.12 % deleted)
d RESTARTS             3133
d FAILURES             1659810      
d NODES                5171188      
d BACKTRACKS           5171188      
d PROPAGATIONS         4336483233   
d NOGOODSIZE           179.68 
d MEMORY               1605.00 
d TIME                 1793.79 

s UNKNOWN
